Route #1: 64 18 59 23 1 44 90
Route #2: 53 70 14 99 42 69 97 31 125 24
Route #3: 15 66 89 103 75 91
Route #4: 67 30 43 84 25 39 93
Route #5: 86 88 113 27 52 50 78
Route #6: 22 46 33 21 34 2 48 58 101 110 121 20
Route #7: 19 6 45 29 111 4 94 87
Route #8: 16 12 96 95 116 92 49 73 114 32
Route #9: 60 77 35 57 13 56 62
Route #10: 17 41 40 55 61 85 36
Route #11: 82 124 7 54 9 63
Route #12: 65 105 11 76 79 10 104 71 126
Route #13: 80 68 98 81 107 128 123
Route #14: 83 109 51 120 8 37
Route #15: 26 108 100 72 112 102 74
Route #16: 119 5 106 122 115 117
Route #17: 38 118 28 127 47
Route #18: 3
